283880.0
2605
0 2 3 5 6 7 8 10 11 13 14 16 17 18 20 25 27 28 30 35 36 37 38 42 43 45 46 47 48 49 52 53 55 56 57 58 60 61 62 65 66 70 72 74 75 78 79 81 84 85 87 88 90 91 93 94 95 98 99 103 104 105 106 109 112 114 115 118 119 120 123 125 127 128 129 130 132 138 139 142 145 147 148 149 153 154 156 159 160 162 163 165 169 171 172 174 175 176 179 180 181 183 184 185 187 189 190 191 192 194 195 196 197 